Instance name:    bar-n100-1
Authors:          PDPTW Solver
Date:             2025-11-20
Reference:        LNS with SA/RTR
Solution
Route 1 : 33 35 10 21 71 60 40 38 83 28 78 88 85 16 36 66 50 90 100 86
Route 2 : 17 20 67 2 52 24 70 74 45 18 46 68 95 96 8 58
Route 3 : 13 39 89 63 5 55 32 82 19 1 51 44 69 94 3 53
Route 4 : 31 14 15 65 43 64 49 12 99 81 93 34 84 25 62 75 37 87 23 73
Route 5 : 26 76 30 80 7 57 9 59 42 41 91 92
Route 6 : 47 97 29 79 11 22 4 27 77 72 61 6 56 48 98 54
